(set-logic HORN)
(declare-fun state (Bool Bool Bool Bool (Array Int Int) (Array Int Int) (Array Int Int) (Array Int Int) Int (Array Int Int) (Array Int Int) Int (Array Int Int) (Array Int Int) (Array Int Int) (Array Int Int) Int Int Int) Bool)
(assert (forall ((|!pc[3]| Bool) (|!pc[2]| Bool) (|!pc[1]| Bool) (|!pc[0]| Bool) (|!{a2.2}| (Array Int Int)) (|!{a1.1}| (Array Int Int)) (|!{a3.3}| (Array Int Int)) (|!{a4.4}| (Array Int Int)) (|!{N}| Int) (|!{a5.5}| (Array Int Int)) (|!{a6.6}| (Array Int Int)) (|!{x}| Int) (|!{a7.7}| (Array Int Int)) (|!{a8.8}| (Array Int Int)) (|!{a9.9}| (Array Int Int)) (|!{a0.10}| (Array Int Int)) (|!{i}| Int) (|arrlambda_0| Int) (|proph0| Int) (|!{a0.10}.next| (Array Int Int)) (|!{a9.9}.next| (Array Int Int)) (|!{a8.8}.next| (Array Int Int)) (|!{a7.7}.next| (Array Int Int)) (|!{a6.6}.next| (Array Int Int)) (|!{a5.5}.next| (Array Int Int)) (|!{a4.4}.next| (Array Int Int)) (|!{a3.3}.next| (Array Int Int)) (|!{a2.2}.next| (Array Int Int)) (|proph0.next| Int) (|nd_char<0>| Int) (|!{a1.1}.next| (Array Int Int)) (|!{x}.next| Int) (|!{i}.next| Int) (|arrlambda_0.next| Int) (|nd<0>| Int) (|%{a1.1}#1| (Array Int Int)) (|%{a2.2}#1| (Array Int Int)) (|%{a3.3}#1| (Array Int Int)) (|%{a4.4}#1| (Array Int Int)) (|!{N}.next| Int) (|%{a5.5}#1| (Array Int Int)) (|%{a6.6}#1| (Array Int Int)) (|%{x}#1| Int) (|%{a7.7}#1| (Array Int Int)) (|%{a8.8}#1| (Array Int Int)) (|%{a9.9}#1| (Array Int Int)) (|%{a0.10}#1| (Array Int Int)) (|!pc[1].next| Bool) (|!pc[0].next| Bool) (|!pc[2].next| Bool) (|!pc[3].next| Bool)) (=> (and (and (and (not |!pc[0]|) (not |!pc[1]|)) (not |!pc[2]|)) (not |!pc[3]|)) (state |!pc[3]| |!pc[2]| |!pc[1]| |!pc[0]| |!{a2.2}| |!{a1.1}| |!{a3.3}| |!{a4.4}| |!{N}| |!{a5.5}| |!{a6.6}| |!{x}| |!{a7.7}| |!{a8.8}| |!{a9.9}| |!{a0.10}| |!{i}| |arrlambda_0| |proph0|))))
(assert (forall ((|!pc[3]| Bool) (|!pc[2]| Bool) (|!pc[1]| Bool) (|!pc[0]| Bool) (|!{a2.2}| (Array Int Int)) (|!{a1.1}| (Array Int Int)) (|!{a3.3}| (Array Int Int)) (|!{a4.4}| (Array Int Int)) (|!{N}| Int) (|!{a5.5}| (Array Int Int)) (|!{a6.6}| (Array Int Int)) (|!{x}| Int) (|!{a7.7}| (Array Int Int)) (|!{a8.8}| (Array Int Int)) (|!{a9.9}| (Array Int Int)) (|!{a0.10}| (Array Int Int)) (|!{i}| Int) (|arrlambda_0| Int) (|proph0| Int) (|!{a0.10}.next| (Array Int Int)) (|!{a9.9}.next| (Array Int Int)) (|!{a8.8}.next| (Array Int Int)) (|!{a7.7}.next| (Array Int Int)) (|!{a6.6}.next| (Array Int Int)) (|!{a5.5}.next| (Array Int Int)) (|!{a4.4}.next| (Array Int Int)) (|!{a3.3}.next| (Array Int Int)) (|!{a2.2}.next| (Array Int Int)) (|proph0.next| Int) (|nd_char<0>| Int) (|!{a1.1}.next| (Array Int Int)) (|!{x}.next| Int) (|!{i}.next| Int) (|arrlambda_0.next| Int) (|nd<0>| Int) (|%{a1.1}#1| (Array Int Int)) (|%{a2.2}#1| (Array Int Int)) (|%{a3.3}#1| (Array Int Int)) (|%{a4.4}#1| (Array Int Int)) (|!{N}.next| Int) (|%{a5.5}#1| (Array Int Int)) (|%{a6.6}#1| (Array Int Int)) (|%{x}#1| Int) (|%{a7.7}#1| (Array Int Int)) (|%{a8.8}#1| (Array Int Int)) (|%{a9.9}#1| (Array Int Int)) (|%{a0.10}#1| (Array Int Int)) (|!pc[1].next| Bool) (|!pc[0].next| Bool) (|!pc[2].next| Bool) (|!pc[3].next| Bool)) (=> (and (state |!pc[3]| |!pc[2]| |!pc[1]| |!pc[0]| |!{a2.2}| |!{a1.1}| |!{a3.3}| |!{a4.4}| |!{N}| |!{a5.5}| |!{a6.6}| |!{x}| |!{a7.7}| |!{a8.8}| |!{a9.9}| |!{a0.10}| |!{i}| |arrlambda_0| |proph0|) (let ((.def_29 (not |!pc[0]|))) (let ((.def_30 (not |!pc[1]|))) (let ((.def_31 (and .def_29 .def_30))) (let ((.def_32 (not |!pc[2]|))) (let ((.def_33 (and .def_31 .def_32))) (let ((.def_34 (not |!pc[3]|))) (let ((.def_36 (select |!{a0.10}| proph0))) (let ((.def_38 (select |!{a0.10}.next| proph0))) (let ((.def_40 (= |!{a0.10}| |!{a0.10}.next|))) (let ((.def_41 (not .def_40))) (let ((.def_43 (select |!{a9.9}| proph0))) (let ((.def_45 (select |!{a9.9}.next| proph0))) (let ((.def_47 (= |!{a9.9}| |!{a9.9}.next|))) (let ((.def_48 (not .def_47))) (let ((.def_50 (select |!{a8.8}| proph0))) (let ((.def_52 (select |!{a8.8}.next| proph0))) (let ((.def_54 (= |!{a8.8}| |!{a8.8}.next|))) (let ((.def_55 (not .def_54))) (let ((.def_57 (select |!{a7.7}| proph0))) (let ((.def_59 (select |!{a7.7}.next| proph0))) (let ((.def_61 (= |!{a7.7}| |!{a7.7}.next|))) (let ((.def_62 (not .def_61))) (let ((.def_64 (select |!{a6.6}| proph0))) (let ((.def_66 (select |!{a6.6}.next| proph0))) (let ((.def_68 (= |!{a6.6}| |!{a6.6}.next|))) (let ((.def_69 (not .def_68))) (let ((.def_71 (select |!{a5.5}| proph0))) (let ((.def_73 (select |!{a5.5}.next| proph0))) (let ((.def_75 (= |!{a5.5}| |!{a5.5}.next|))) (let ((.def_76 (not .def_75))) (let ((.def_78 (select |!{a4.4}| proph0))) (let ((.def_80 (select |!{a4.4}.next| proph0))) (let ((.def_82 (= |!{a4.4}| |!{a4.4}.next|))) (let ((.def_83 (not .def_82))) (let ((.def_85 (select |!{a3.3}| proph0))) (let ((.def_87 (select |!{a3.3}.next| proph0))) (let ((.def_89 (= |!{a3.3}| |!{a3.3}.next|))) (let ((.def_90 (not .def_89))) (let ((.def_94 (select |!{a2.2}.next| proph0))) (let ((.def_96 (= |!{a2.2}| |!{a2.2}.next|))) (let ((.def_97 (not .def_96))) (let ((.def_99 (select |!{a9.9}.next| |!{i}|))) (let ((.def_100 (select |!{a9.9}| |!{i}|))) (let ((.def_103 (select |!{a8.8}.next| |!{i}|))) (let ((.def_104 (select |!{a8.8}| |!{i}|))) (let ((.def_107 (select |!{a7.7}.next| |!{i}|))) (let ((.def_108 (select |!{a7.7}| |!{i}|))) (let ((.def_114 (store |!{a2.2}| |!{i}| nd_char<0>))) (let ((.def_117 (= |!{i}| proph0.next))) (let ((.def_120 (store |!{a1.1}| |!{i}| nd_char<0>))) (let ((.def_124 (select |!{a2.2}| |!{i}|))) (let ((.def_125 (store |!{a3.3}| |!{i}| .def_124))) (let ((.def_126 (select .def_125 proph0))) (let ((.def_128 (= |!{i}| proph0))) (let ((.def_130 (select |!{a3.3}| |!{i}|))) (let ((.def_131 (store |!{a4.4}| |!{i}| .def_130))) (let ((.def_132 (select .def_131 proph0))) (let ((.def_135 (select |!{a4.4}| |!{i}|))) (let ((.def_136 (store |!{a5.5}| |!{i}| .def_135))) (let ((.def_137 (select .def_136 proph0))) (let ((.def_140 (select |!{a5.5}| |!{i}|))) (let ((.def_141 (store |!{a6.6}| |!{i}| .def_140))) (let ((.def_142 (select .def_141 proph0))) (let ((.def_145 (select |!{a6.6}| |!{i}|))) (let ((.def_146 (store |!{a7.7}| |!{i}| .def_145))) (let ((.def_147 (select .def_146 proph0))) (let ((.def_150 (store |!{a8.8}| |!{i}| .def_108))) (let ((.def_151 (select .def_150 proph0))) (let ((.def_154 (store |!{a9.9}| |!{i}| .def_104))) (let ((.def_155 (select .def_154 proph0))) (let ((.def_158 (store |!{a0.10}| |!{i}| .def_100))) (let ((.def_159 (select .def_158 proph0))) (let ((.def_164 (= |!{a2.2}.next| .def_114))) (let ((.def_165 (not .def_164))) (let ((.def_169 (select |!{a1.1}.next| proph0))) (let ((.def_171 (= .def_120 |!{a1.1}.next|))) (let ((.def_172 (not .def_171))) (let ((.def_175 (= |!{a3.3}.next| .def_125))) (let ((.def_176 (not .def_175))) (let ((.def_179 (= |!{a4.4}.next| .def_131))) (let ((.def_180 (not .def_179))) (let ((.def_183 (= |!{a5.5}.next| .def_136))) (let ((.def_184 (not .def_183))) (let ((.def_187 (= |!{a6.6}.next| .def_141))) (let ((.def_188 (not .def_187))) (let ((.def_191 (= |!{a7.7}.next| .def_146))) (let ((.def_192 (not .def_191))) (let ((.def_195 (= |!{a8.8}.next| .def_150))) (let ((.def_196 (not .def_195))) (let ((.def_199 (= |!{a9.9}.next| .def_154))) (let ((.def_200 (not .def_199))) (let ((.def_203 (= |!{a0.10}.next| .def_158))) (let ((.def_204 (not .def_203))) (let ((.def_208 (select .def_114 |!{i}|))) (let ((.def_211 (select |!{a1.1}.next| |!{i}|))) (let ((.def_212 (select .def_120 |!{i}|))) (let ((.def_216 (select .def_125 |!{i}|))) (let ((.def_220 (select .def_131 |!{i}|))) (let ((.def_224 (select .def_136 |!{i}|))) (let ((.def_228 (select .def_141 |!{i}|))) (let ((.def_231 (select .def_146 |!{i}|))) (let ((.def_234 (select .def_150 |!{i}|))) (let ((.def_237 (select .def_154 |!{i}|))) (let ((.def_241 (select .def_158 |!{i}|))) (let ((.def_251 (select |!{a9.9}.next| |!{i}.next|))) (let ((.def_255 (select |!{a8.8}.next| |!{i}.next|))) (let ((.def_259 (select |!{a7.7}.next| |!{i}.next|))) (let ((.def_263 (select |!{a6.6}.next| |!{i}.next|))) (let ((.def_267 (select |!{a5.5}.next| |!{i}.next|))) (let ((.def_271 (select |!{a4.4}.next| |!{i}.next|))) (let ((.def_275 (select |!{a3.3}.next| |!{i}.next|))) (let ((.def_279 (select |!{a2.2}.next| |!{i}.next|))) (let ((.def_284 (= |!{a1.1}| |!{a1.1}.next|))) (let ((.def_285 (not .def_284))) (let ((.def_328 (= |!{i}.next| 0))) (let ((.def_350 (not |!pc[1].next|))) (let ((.def_352 (and .def_350 |!pc[0].next|))) (let ((.def_354 (not |!pc[2].next|))) (let ((.def_355 (and .def_352 .def_354))) (let ((.def_357 (not |!pc[3].next|))) (let ((.def_358 (and .def_355 .def_357))) (let ((.def_363 (= (select |!{a1.1}| |!{x}|) (select |!{a0.10}| |!{x}|)))) (let ((.def_369 (= |!{N}| |!{N}.next|))) (let ((.def_372 (= |!{i}| |!{i}.next|))) (let ((.def_375 (= |!{x}| |!{x}.next|))) (let ((.def_381 (<= |!{N}| |!{x}|))) (let ((.def_382 (not .def_381))) (let ((.def_384 (and |!pc[1].next| |!pc[0].next|))) (let ((.def_385 (and .def_354 .def_384))) (let ((.def_387 (and |!pc[1]| .def_29))) (let ((.def_388 (and .def_32 .def_387))) (let ((.def_389 (and .def_34 .def_388))) (let ((.def_397 (and .def_96 .def_284))) (let ((.def_398 (and .def_89 .def_397))) (let ((.def_400 (and .def_369 (and .def_82 .def_398)))) (let ((.def_401 (and .def_75 .def_400))) (let ((.def_403 (and .def_68 (and .def_372 .def_401)))) (let ((.def_408 (and .def_40 (and .def_47 (and .def_54 (and .def_61 (and (= (+ |!{x}| (* (- 1) |!{x}.next|)) (- 1)) .def_403))))))) (let ((.def_411 (not |!pc[0].next|))) (let ((.def_412 (and |!pc[1].next| .def_411))) (let ((.def_413 (and .def_354 .def_412))) (let ((.def_414 (and .def_357 .def_413))) (let ((.def_431 (and .def_350 .def_411))) (let ((.def_432 (and |!pc[2].next| .def_431))) (let ((.def_438 (and |!pc[1]| |!pc[0]|))) (let ((.def_439 (and .def_32 .def_438))) (let ((.def_440 (and .def_34 .def_439))) (let ((.def_448 (= (+ |!{i}| (* (- 1) |!{i}.next|)) (- 1)))) (let ((.def_449 (and .def_401 .def_448))) (let ((.def_451 (and .def_375 (and .def_68 .def_449)))) (let ((.def_452 (and .def_61 .def_451))) (let ((.def_453 (and .def_54 .def_452))) (let ((.def_456 (<= |!{N}| |!{i}|))) (let ((.def_457 (not .def_456))) (let ((.def_459 (and |!pc[0]| .def_30))) (let ((.def_461 (and .def_34 (and |!pc[2]| .def_459)))) (let ((.def_463 (and .def_357 (and .def_352 |!pc[2].next|)))) (let ((.def_481 (and .def_34 (and |!pc[2]| .def_387)))) (let ((.def_483 (and .def_357 (and |!pc[2].next| .def_412)))) (let ((.def_494 (and .def_456 (and .def_40 (and .def_47 (and .def_54 (and .def_61 (and .def_375 (and .def_68 (and .def_328 .def_401)))))))))) (let ((.def_503 (and .def_34 (and |!pc[2]| .def_438)))) (let ((.def_505 (and .def_357 (and |!pc[2].next| .def_384)))) (let ((.def_517 (and |!pc[3]| .def_33))) (let ((.def_519 (and |!pc[3].next| (and .def_354 .def_431)))) (let ((.def_533 (and .def_32 .def_459))) (let ((.def_534 (and |!pc[3]| .def_533))) (let ((.def_535 (and .def_355 |!pc[3].next|))) (let ((.def_551 (and |!pc[3]| .def_388))) (let ((.def_552 (and |!pc[3].next| .def_413))) (let ((.def_570 (and |!pc[3]| .def_439))) (let ((.def_571 (and |!pc[3].next| .def_385))) (let ((.def_591 (and |!pc[3]| (and |!pc[2]| .def_31)))) (let ((.def_592 (and |!pc[3].next| .def_432))) (let ((.def_612 (and .def_34 .def_533))) (let ((.def_623 (store |!{a0.10}.next| |!{i}.next| .def_251))) (let ((.def_628 (store |!{a9.9}.next| |!{i}.next| .def_255))) (let ((.def_633 (store |!{a8.8}.next| |!{i}.next| .def_259))) (let ((.def_638 (store |!{a7.7}.next| |!{i}.next| .def_263))) (let ((.def_643 (store |!{a6.6}.next| |!{i}.next| .def_267))) (let ((.def_648 (store |!{a5.5}.next| |!{i}.next| .def_271))) (let ((.def_653 (store |!{a4.4}.next| |!{i}.next| .def_275))) (let ((.def_658 (store |!{a3.3}.next| |!{i}.next| .def_279))) (let ((.def_713 (= proph0.next |!{i}.next|))) (and (or (= .def_36 .def_38) .def_41) (and (or (= .def_43 .def_45) .def_48) (and (or (= .def_50 .def_52) .def_55) (and (or (= .def_57 .def_59) .def_62) (and (or (= .def_64 .def_66) .def_69) (and (or (= .def_71 .def_73) .def_76) (and (or (= .def_78 .def_80) .def_83) (and (or (= .def_85 .def_87) .def_90) (and (or (= (select |!{a2.2}| proph0) .def_94) .def_97) (and (or .def_48 (= .def_99 .def_100)) (and (or .def_55 (= .def_103 .def_104)) (and (or .def_62 (= .def_107 .def_108)) (and (or (= (select |!{a2.2}| proph0.next) (select .def_114 proph0.next)) .def_117) (and (or .def_117 (= (select |!{a1.1}| proph0.next) (select .def_120 proph0.next))) (and (and (or (= .def_85 .def_126) .def_128) (and (and (or .def_128 (= .def_78 .def_132)) (and (and (or .def_128 (= .def_71 .def_137)) (and (and (or .def_128 (= .def_64 .def_142)) (and (and (or .def_128 (= .def_57 .def_147)) (and (and (or .def_128 (= .def_50 .def_151)) (and (and (or .def_128 (= .def_43 .def_155)) (and (and (or .def_128 (= .def_36 .def_159)) (and (or (= .def_94 (select .def_114 proph0)) .def_165) (and (or (= (select .def_120 proph0) .def_169) .def_172) (and (or (= .def_87 .def_126) .def_176) (and (or (= .def_80 .def_132) .def_180) (and (or (= .def_73 .def_137) .def_184) (and (or (= .def_66 .def_142) .def_188) (and (or (= .def_59 .def_147) .def_192) (and (or (= .def_52 .def_151) .def_196) (and (or (= .def_45 .def_155) .def_200) (and (or (= .def_38 .def_159) .def_204) (and (and (= proph0 proph0.next) (and (or .def_165 (= (select |!{a2.2}.next| |!{i}|) .def_208)) (and (or .def_172 (= .def_211 .def_212)) (and (or .def_176 (= (select |!{a3.3}.next| |!{i}|) .def_216)) (and (or .def_180 (= (select |!{a4.4}.next| |!{i}|) .def_220)) (and (or .def_184 (= (select |!{a5.5}.next| |!{i}|) .def_224)) (and (or .def_188 (= (select |!{a6.6}.next| |!{i}|) .def_228)) (and (or .def_192 (= .def_107 .def_231)) (and (or .def_196 (= .def_103 .def_234)) (and (or .def_200 (= .def_99 .def_237)) (and (or .def_204 (= (select |!{a0.10}.next| |!{i}|) .def_241)) (and (or .def_41 (= (select |!{a0.10}| |!{x}.next|) (select |!{a0.10}.next| |!{x}.next|))) (and (or .def_48 (= (select |!{a9.9}| |!{i}.next|) .def_251)) (and (or .def_55 (= (select |!{a8.8}| |!{i}.next|) .def_255)) (and (or .def_62 (= (select |!{a7.7}| |!{i}.next|) .def_259)) (and (or .def_69 (= (select |!{a6.6}| |!{i}.next|) .def_263)) (and (or .def_76 (= (select |!{a5.5}| |!{i}.next|) .def_267)) (and (or .def_83 (= (select |!{a4.4}| |!{i}.next|) .def_271)) (and (or .def_90 (= (select |!{a3.3}| |!{i}.next|) .def_275)) (and (or .def_97 (= (select |!{a2.2}| |!{i}.next|) .def_279)) (and (or (= .def_211 (select |!{a1.1}| |!{i}|)) .def_285) (and (or .def_285 (= (select |!{a1.1}| |!{x}.next|) (select |!{a1.1}.next| |!{x}.next|))) (and (or .def_285 (= (select |!{a1.1}| |!{i}.next|) (select |!{a1.1}.next| |!{i}.next|))) (and (and (= nd_char<0> .def_208) (and (and (= nd_char<0> .def_212) (and (and (= .def_124 .def_216) (and (and (= .def_130 .def_220) (and (and (= .def_135 .def_224) (and (and (= .def_140 .def_228) (and (and (= .def_145 .def_231) (and (and (= .def_108 .def_234) (and (and (= .def_104 .def_237) (and (and (= .def_100 .def_241) (and (and (= arrlambda_0 arrlambda_0.next) (or (or (or (or (or (or (or (or (or (or (or (and (and (not (<= nd<0> 0)) (and (and (and (and (and (and (and (and (and (and (and (and (= |!{a1.1}.next| |%{a1.1}#1|) (= |!{a2.2}.next| |%{a2.2}#1|)) (= |!{a3.3}.next| |%{a3.3}#1|)) (= |!{a4.4}.next| |%{a4.4}#1|)) (= nd<0> |!{N}.next|)) (= |!{a5.5}.next| |%{a5.5}#1|)) .def_328) (= |!{a6.6}.next| |%{a6.6}#1|)) (= |!{x}.next| |%{x}#1|)) (= |!{a7.7}.next| |%{a7.7}#1|)) (= |!{a8.8}.next| |%{a8.8}#1|)) (= |!{a9.9}.next| |%{a9.9}#1|)) (= |!{a0.10}.next| |%{a0.10}#1|))) (and (and .def_33 .def_34) .def_358)) (or (or (and (and (and .def_40 (and .def_47 (and .def_54 (and .def_61 (and (and .def_68 (and (and .def_75 (and (and .def_82 (and .def_89 (and .def_96 (and .def_284 (not .def_363))))) .def_369)) .def_372)) .def_375))))) .def_382) (and (and .def_357 .def_385) .def_389)) (and (and .def_382 (and .def_363 .def_408)) (and .def_389 .def_414))) (and (and .def_40 (and .def_47 (and .def_54 (and .def_61 (and .def_375 (and .def_68 (and .def_372 (and .def_75 (and .def_369 (and .def_82 (and .def_89 (and .def_96 (and .def_284 .def_381))))))))))))) (and .def_389 (and .def_357 .def_432))))) (and .def_408 (and .def_414 .def_440))) (or (and (and (and .def_203 (and .def_47 .def_453)) .def_457) (and .def_461 .def_463)) (and (and .def_456 (and .def_40 (and .def_47 (and .def_54 (and .def_61 (and .def_403 (= |!{x}.next| 0))))))) (and .def_414 .def_461)))) (or (and (and .def_457 (and .def_40 (and .def_199 .def_453))) (and .def_481 .def_483)) (and (and .def_463 .def_481) .def_494))) (or (and (and .def_457 (and .def_40 (and .def_47 (and .def_195 .def_452)))) (and .def_503 .def_505)) (and .def_494 (and .def_483 .def_503)))) (or (and (and .def_457 (and .def_40 (and .def_47 (and .def_54 (and .def_191 .def_451))))) (and .def_517 .def_519)) (and .def_494 (and .def_505 .def_517)))) (or (and (and .def_457 (and .def_40 (and .def_47 (and .def_54 (and .def_61 (and .def_375 (and .def_187 .def_449))))))) (and .def_534 .def_535)) (and .def_494 (and .def_519 .def_534)))) (or (and (and .def_457 (and .def_40 (and .def_47 (and .def_54 (and .def_61 (and .def_375 (and .def_68 (and .def_448 (and .def_183 .def_400))))))))) (and .def_551 .def_552)) (and .def_494 (and .def_535 .def_551)))) (or (and (and .def_457 (and .def_40 (and .def_47 (and .def_54 (and .def_61 (and .def_375 (and .def_68 (and .def_448 (and .def_75 (and .def_369 (and .def_179 .def_398))))))))))) (and .def_570 .def_571)) (and .def_494 (and .def_552 .def_570)))) (or (and (and .def_457 (and .def_40 (and .def_47 (and .def_54 (and .def_61 (and .def_375 (and .def_68 (and .def_448 (and .def_75 (and .def_369 (and .def_82 (and .def_175 .def_397)))))))))))) (and .def_591 .def_592)) (and .def_494 (and .def_571 .def_591)))) (or (and (and .def_457 (and .def_40 (and .def_47 (and .def_54 (and .def_61 (and .def_375 (and .def_68 (and .def_448 (and .def_75 (and .def_369 (and .def_82 (and .def_89 (and .def_164 .def_171))))))))))))) (and .def_358 .def_612)) (and .def_494 (and .def_592 .def_612))))) (not .def_440))) (= .def_251 (select .def_623 |!{i}.next|)))) (= .def_255 (select .def_628 |!{i}.next|)))) (= .def_259 (select .def_633 |!{i}.next|)))) (= .def_263 (select .def_638 |!{i}.next|)))) (= .def_267 (select .def_643 |!{i}.next|)))) (= .def_271 (select .def_648 |!{i}.next|)))) (= .def_275 (select .def_653 |!{i}.next|)))) (= .def_279 (select .def_658 |!{i}.next|)))) (= nd_char<0> (select (store |!{a1.1}.next| |!{i}.next| nd_char<0>) |!{i}.next|)))) (= nd_char<0> (select (store |!{a2.2}.next| |!{i}.next| nd_char<0>) |!{i}.next|)))))))))))))))))))))))))) (or .def_285 (= .def_169 (select |!{a1.1}| proph0))))))))))))))) (or (= (select |!{a0.10}.next| proph0.next) (select .def_623 proph0.next)) .def_713))) (or .def_713 (= (select |!{a9.9}.next| proph0.next) (select .def_628 proph0.next))))) (or .def_713 (= (select |!{a8.8}.next| proph0.next) (select .def_633 proph0.next))))) (or .def_713 (= (select |!{a7.7}.next| proph0.next) (select .def_638 proph0.next))))) (or .def_713 (= (select |!{a6.6}.next| proph0.next) (select .def_643 proph0.next))))) (or .def_713 (= (select |!{a5.5}.next| proph0.next) (select .def_648 proph0.next))))) (or .def_713 (= (select |!{a4.4}.next| proph0.next) (select .def_653 proph0.next))))) (or .def_713 (= (select |!{a3.3}.next| proph0.next) (select .def_658 proph0.next)))))))))))))))))))))))))))))))))))))))))))))))))))))))))))))))))))))))))))))))))))))))))))))))))))))))))))))))))))))))))))))))))))))))))))))))))))))))))))))))))))))))))))))))))))))))))))))))))))))))))) (state |!pc[3].next| |!pc[2].next| |!pc[1].next| |!pc[0].next| |!{a2.2}.next| |!{a1.1}.next| |!{a3.3}.next| |!{a4.4}.next| |!{N}.next| |!{a5.5}.next| |!{a6.6}.next| |!{x}.next| |!{a7.7}.next| |!{a8.8}.next| |!{a9.9}.next| |!{a0.10}.next| |!{i}.next| |arrlambda_0.next| |proph0.next|))))
(assert (forall ((|!pc[3]| Bool) (|!pc[2]| Bool) (|!pc[1]| Bool) (|!pc[0]| Bool) (|!{a2.2}| (Array Int Int)) (|!{a1.1}| (Array Int Int)) (|!{a3.3}| (Array Int Int)) (|!{a4.4}| (Array Int Int)) (|!{N}| Int) (|!{a5.5}| (Array Int Int)) (|!{a6.6}| (Array Int Int)) (|!{x}| Int) (|!{a7.7}| (Array Int Int)) (|!{a8.8}| (Array Int Int)) (|!{a9.9}| (Array Int Int)) (|!{a0.10}| (Array Int Int)) (|!{i}| Int) (|arrlambda_0| Int) (|proph0| Int) (|!{a0.10}.next| (Array Int Int)) (|!{a9.9}.next| (Array Int Int)) (|!{a8.8}.next| (Array Int Int)) (|!{a7.7}.next| (Array Int Int)) (|!{a6.6}.next| (Array Int Int)) (|!{a5.5}.next| (Array Int Int)) (|!{a4.4}.next| (Array Int Int)) (|!{a3.3}.next| (Array Int Int)) (|!{a2.2}.next| (Array Int Int)) (|proph0.next| Int) (|nd_char<0>| Int) (|!{a1.1}.next| (Array Int Int)) (|!{x}.next| Int) (|!{i}.next| Int) (|arrlambda_0.next| Int) (|nd<0>| Int) (|%{a1.1}#1| (Array Int Int)) (|%{a2.2}#1| (Array Int Int)) (|%{a3.3}#1| (Array Int Int)) (|%{a4.4}#1| (Array Int Int)) (|!{N}.next| Int) (|%{a5.5}#1| (Array Int Int)) (|%{a6.6}#1| (Array Int Int)) (|%{x}#1| Int) (|%{a7.7}#1| (Array Int Int)) (|%{a8.8}#1| (Array Int Int)) (|%{a9.9}#1| (Array Int Int)) (|%{a0.10}#1| (Array Int Int)) (|!pc[1].next| Bool) (|!pc[0].next| Bool) (|!pc[2].next| Bool) (|!pc[3].next| Bool)) (=> (state |!pc[3]| |!pc[2]| |!pc[1]| |!pc[0]| |!{a2.2}| |!{a1.1}| |!{a3.3}| |!{a4.4}| |!{N}| |!{a5.5}| |!{a6.6}| |!{x}| |!{a7.7}| |!{a8.8}| |!{a9.9}| |!{a0.10}| |!{i}| |arrlambda_0| |proph0|) (or (not (and (not |!pc[3]|) (and (not |!pc[2]|) (and |!pc[1]| |!pc[0]|)))) (not (= |!{x}| proph0))))))
(check-sat)
